c This file was generated with the constraints_to_cnf module in this project.
c Starting from file 'constraints.txt'.
c There are 144 variables present in the constraints, and 144 total variables, given by the shape [12, 12].
c
p cnf 144 146
1 0
144 0
2 13 14 -1 0
11 23 24 -12 0
121 122 134 -133 0
131 132 143 -144 0
1 2 14 25 26 -13 0
1 3 13 14 15 -2 0
2 4 14 15 16 -3 0
11 12 23 35 36 -24 0
11 9 23 21 22 -10 0
12 10 23 24 22 -11 0
3 5 15 16 17 -4 0
4 6 16 17 18 -5 0
5 7 17 18 19 -6 0
6 8 18 19 20 -7 0
7 9 19 20 21 -8 0
8 10 20 21 22 -9 0
121 122 123 133 135 -134 0
121 122 97 98 110 -109 0
122 123 124 134 136 -135 0
122 133 134 109 110 -121 0
131 132 130 144 142 -143 0
131 132 107 108 119 -120 0
131 129 130 143 141 -142 0
131 143 144 119 120 -132 0
123 124 125 135 137 -136 0
124 125 126 136 138 -137 0
125 126 127 137 139 -138 0
126 127 128 138 140 -139 0
127 128 129 139 141 -140 0
128 129 130 140 142 -141 0
13 14 26 37 38 -25 0
23 24 35 47 48 -36 0
25 26 38 49 50 -37 0
35 36 47 59 60 -48 0
37 38 50 61 62 -49 0
49 50 62 73 74 -61 0
59 60 71 83 84 -60 0
59 60 71 83 84 -72 0
61 62 74 85 86 -73 0
71 72 83 95 96 -84 0
73 74 86 97 98 -85 0
83 84 95 107 108 -96 0
85 86 98 109 110 -97 0
95 96 107 119 120 -108 0
1 2 3 13 15 25 26 27 -14 0
2 3 4 14 16 26 27 28 -15 0
11 12 10 24 22 35 36 34 -23 0
11 9 10 23 21 35 33 34 -22 0
3 4 5 15 17 27 28 29 -16 0
4 5 6 16 18 28 29 30 -17 0
5 6 7 17 19 29 30 31 -18 0
6 7 8 18 20 30 31 32 -19 0
7 8 9 19 21 31 32 33 -20 0
8 9 10 20 22 32 33 34 -21 0
121 122 123 97 98 99 109 111 -110 0
121 123 133 134 135 109 110 111 -122 0
122 123 124 98 99 100 110 112 -111 0
122 124 134 135 136 110 111 112 -123 0
131 132 130 107 108 106 120 118 -119 0
131 129 130 107 105 106 119 117 -118 0
131 129 143 141 142 119 117 118 -130 0
132 130 143 144 142 119 120 118 -131 0
123 124 125 99 100 101 111 113 -112 0
123 125 135 136 137 111 112 113 -124 0
124 125 126 100 101 102 112 114 -113 0
124 126 136 137 138 112 113 114 -125 0
125 126 127 101 102 103 113 115 -114 0
125 127 137 138 139 113 114 115 -126 0
126 127 128 102 103 104 114 116 -115 0
126 128 138 139 140 114 115 116 -127 0
127 128 129 103 104 105 115 117 -116 0
127 129 139 140 141 115 116 117 -128 0
128 129 130 104 105 106 116 118 -117 0
128 130 140 141 142 116 117 118 -129 0
13 14 15 25 27 37 38 39 -26 0
14 15 16 26 28 38 39 40 -27 0
23 24 22 36 34 47 48 46 -35 0
23 21 22 35 33 47 45 46 -34 0
15 16 17 27 29 39 40 41 -28 0
16 17 18 28 30 40 41 42 -29 0
17 18 19 29 31 41 42 43 -30 0
18 19 20 30 32 42 43 44 -31 0
19 20 21 31 33 43 44 45 -32 0
20 21 22 32 34 44 45 46 -33 0
25 26 27 37 39 49 50 51 -38 0
26 27 28 38 40 50 51 52 -39 0
35 36 34 48 46 59 60 58 -47 0
35 33 34 47 45 59 57 58 -46 0
27 28 29 39 41 51 52 53 -40 0
28 29 30 40 42 52 53 54 -41 0
29 30 31 41 43 53 54 55 -42 0
30 31 32 42 44 54 55 56 -43 0
31 32 33 43 45 55 56 57 -44 0
32 33 34 44 46 56 57 58 -45 0
37 38 39 49 51 61 62 63 -50 0
38 39 40 50 52 62 63 64 -51 0
47 48 46 60 58 71 72 70 -59 0
47 45 46 59 57 71 69 70 -58 0
39 40 41 51 53 63 64 65 -52 0
40 41 42 52 54 64 65 66 -53 0
41 42 43 53 55 65 66 67 -54 0
42 43 44 54 56 66 67 68 -55 0
43 44 45 55 57 67 68 69 -56 0
44 45 46 56 58 68 69 70 -57 0
49 50 51 61 63 73 74 75 -62 0
50 51 52 62 64 74 75 76 -63 0
59 60 58 72 70 83 84 82 -71 0
59 57 58 71 69 83 81 82 -70 0
51 52 53 63 65 75 76 77 -64 0
52 53 54 64 66 76 77 78 -65 0
53 54 55 65 67 77 78 79 -66 0
54 55 56 66 68 78 79 80 -67 0
55 56 57 67 69 79 80 81 -68 0
56 57 58 68 70 80 81 82 -69 0
61 62 63 73 75 85 86 87 -74 0
62 63 64 74 76 86 87 88 -75 0
71 72 70 84 82 95 96 94 -83 0
71 69 70 83 81 95 93 94 -82 0
63 64 65 75 77 87 88 89 -76 0
64 65 66 76 78 88 89 90 -77 0
65 66 67 77 79 89 90 91 -78 0
66 67 68 78 80 90 91 92 -79 0
67 68 69 79 81 91 92 93 -80 0
68 69 70 80 82 92 93 94 -81 0
73 74 75 85 87 97 98 99 -86 0
74 75 76 86 88 98 99 100 -87 0
83 84 82 96 94 107 108 106 -95 0
83 81 82 95 93 107 105 106 -94 0
75 76 77 87 89 99 100 101 -88 0
76 77 78 88 90 100 101 102 -89 0
77 78 79 89 91 101 102 103 -90 0
78 79 80 90 92 102 103 104 -91 0
79 80 81 91 93 103 104 105 -92 0
80 81 82 92 94 104 105 106 -93 0
85 86 87 97 99 109 110 111 -98 0
86 87 88 98 100 110 111 112 -99 0
95 96 94 108 106 119 120 118 -107 0
95 93 94 107 105 119 117 118 -106 0
87 88 89 99 101 111 112 113 -100 0
88 89 90 100 102 112 113 114 -101 0
89 90 91 101 103 113 114 115 -102 0
90 91 92 102 104 114 115 116 -103 0
91 92 93 103 105 115 116 117 -104 0
92 93 94 104 106 116 117 118 -105 0

